maximize
 0.0x00 + 6.0x01 + 0.0x10 + 0.0x11 + 8.0x12 + 0.0x20 + 5.0x21 + 5.0x22
subject to
c0:  0.0x00 + 1.0x01 + 1.0x10 + 0.0x11 + 1.0x12 + 1.0x20 + 0.0x21 + 1.0x22<=  1.0 
c1:  1.0x00 + 1.0x01 + 0.0x10 + 1.0x11 + 1.0x12 + 0.0x20 + 1.0x21 + 1.0x22<=  1.0 

binary
 x00  x01  x10  x11  x12  x20  x21  x22 
end